1000 0 1 0
2000 0 2 0
3000 0 3 0
1020 0 1 2
2020 0 2 2
3020 0 3 2
1050 0 1 5
2050 0 2 5
3050 0 3 5
1566 0 1 50 65 85 109 137 159 177 197 223 254
1566 0 1 564 5165 541 2 325 561 823 123 5487 95
418 0 1 52 562 763
4178 1 2 789 950 1120 1206 1707 1707 1707 1707